10 12
10 5
21 49
33 41
29 3
44 10
47 0
12 36
17 36
0 44
36 38
34 45
32 48
48 30
36 18
38 28
32 16
41 42
36 41
45 41
25 15
9 16
26 33
25 10
46 22
48 21
41 30
5 47
36 4
2 25
17 36
28 37
32 46
18 41
43 36
18 42
42 13
37 47
32 48
3 25
39 47
33 3
12 8
27 37
38 38
12 48
0 45
1 27
4 33
35 45
38 21
22 14
20 27
31 45
23 7
19 14
21 2
10 1
38 1
17 20
44 19
48 32
18 48
8 34
46 13
28 20
36 49
18 27
7 34
26 15
28 18
10 12
39 27
2 45
20 20
37 26
33 24
12 29
0 37
0 17
0 20
8 27
9 39
12 17
23 48
48 12
17 22
19 29
9 30
39 6
4 3
35 12
31 32
44 41
29 5
4 12
33 18
0 18
35 30
31 14
47 48
39 41
41 12
40 29
7 35
30 47
6 6
38 37
8 37
8 32
